DIMENSION: 130
12
87
81
103
77
94
89
110
98
68
63
70
97
26
7
88
69
64
86
124
129
61
109
76
11
5
45
16
128
105
62
112
117
39
71
41
1
130
50
2
118
80
46
20
35
54
17
31
27
19
100
116
24
15
29
95
79
38
92
73
99
74
75
52
9
57
56
65
82
101
123
111
119
84
36
32
113
25
48
43
104
107
127
34
4
42
44
40
47
37
22
23
122
55
60
51
120
53
49
58
106
72
91
6
102
10
14
67
96
13
33
21
18
8
108
114
3
83
30
59
121
78
90
125
85
66
28
115
126
93
